&INPUTPP
  atom_proj = .true.
  outdir = './out/'
  prefix = 'silicon'
  seedname = 'silicon'
/
